; benchmark generated from python API
(set-info :status unknown)
(declare-fun x_month () Int)
(declare-fun x_year () Int)
(declare-fun x_day () Int)
(declare-fun y_month () Int)
(declare-fun y_year () Int)
(declare-fun y_day () Int)
(assert
 (let (($x669 (or (= x_month 4) (= x_month 6) (= x_month 9) (= x_month 11))))
 (let ((?x864 (ite $x669 30 31)))
 (let (($x854 (= (mod x_year 400) 0)))
 (let (($x966 (= (mod x_year 4) 0)))
 (let ((?x863 (ite (or (and $x966 (and (distinct (mod x_year 100) 0) true)) $x854) 29 28)))
 (let (($x594 (= x_month 2)))
 (let (($x834 (<= x_day (ite $x594 ?x863 ?x864))))
 (let (($x972 (>= x_day 1)))
 (let (($x846 (<= x_month 2)))
 (let (($x837 (>= x_month 1)))
 (let (($x843 (= x_year 2100)))
 (let (($x814 (<= x_month 12)))
 (let (($x835 (<= x_year 2099)))
 (let (($x603 (>= x_year 1901)))
 (or (and (= x_year 1900) (>= x_month 3) $x814 $x972 $x834) (and $x603 $x835 $x837 $x814 $x972 $x834) (and $x843 $x837 $x846 $x972 $x834)))))))))))))))))
(assert
 (let (($x403 (or (= y_month 4) (= y_month 6) (= y_month 9) (= y_month 11))))
 (let ((?x577 (ite $x403 30 31)))
 (let (($x428 (= (mod y_year 400) 0)))
 (let (($x861 (= (mod y_year 4) 0)))
 (let ((?x454 (ite (or (and $x861 (and (distinct (mod y_year 100) 0) true)) $x428) 29 28)))
 (let (($x858 (= y_month 2)))
 (let (($x449 (<= y_day (ite $x858 ?x454 ?x577))))
 (let (($x810 (>= y_day 1)))
 (let (($x485 (<= y_month 2)))
 (let (($x488 (>= y_month 1)))
 (let (($x498 (= y_year 2100)))
 (let (($x848 (<= y_month 12)))
 (let (($x855 (<= y_year 2099)))
 (let (($x852 (>= y_year 1901)))
 (or (and (= y_year 1900) (>= y_month 3) $x848 $x810 $x449) (and $x852 $x855 $x488 $x848 $x810 $x449) (and $x498 $x488 $x485 $x810 $x449)))))))))))))))))
(assert
 (let (($x877 (= x_year 2019)))
 (let (($x645 (and $x877 (or (> x_month 12) (and (= x_month 12) (>= x_day 31))))))
 (or (> x_year 2019) $x645))))
(assert
 (let (($x575 (= x_year 2020)))
 (let (($x815 (and $x575 (or (< x_month 2) (and (= x_month 2) (<= x_day 1))))))
 (or (< x_year 2020) $x815))))
(assert
 (let ((?x818 (+ (mod (- (+ x_month (+ (* 1 12) 0)) 1) 12) 1)))
 (let ((?x1006 (ite (or (= ?x818 4) (= ?x818 6) (= ?x818 9) (= ?x818 11)) 30 31)))
 (let ((?x806 (+ 0 (div (- (+ x_month (+ (* 1 12) 0)) 1) 12))))
 (let ((?x844 (+ x_year ?x806)))
 (let (($x865 (or (and (= (mod ?x844 4) 0) (and (distinct (mod ?x844 100) 0) true)) (= (mod ?x844 400) 0))))
 (let ((?x588 (ite (= ?x818 2) (ite $x865 29 28) ?x1006)))
 (let (($x766 (< x_day 1)))
 (let ((?x763 (ite $x766 1 (ite (> x_day ?x588) ?x588 x_day))))
 (let ((?x1026 (ite (< ?x763 1) 1 (ite (> ?x763 ?x588) ?x588 ?x763))))
 (let ((?x606 (ite (= 2 ?x818) (ite $x865 31 31) (ite (= 1 ?x818) (ite $x865 0 0) 0))))
 (let ((?x616 (ite (= 4 ?x818) (ite $x865 91 90) (ite (= 3 ?x818) (ite $x865 60 59) ?x606))))
 (let ((?x955 (ite (= 6 ?x818) (ite $x865 152 151) (ite (= 5 ?x818) (ite $x865 121 120) ?x616))))
 (let ((?x1100 (ite (= 8 ?x818) (ite $x865 213 212) (ite (= 7 ?x818) (ite $x865 182 181) ?x955))))
 (let ((?x464 (ite (= 10 ?x818) (ite $x865 274 273) (ite (= 9 ?x818) (ite $x865 244 243) ?x1100))))
 (let ((?x1012 (ite (= 12 ?x818) (ite $x865 335 334) (ite (= 11 ?x818) (ite $x865 305 304) ?x464))))
 (let ((?x632 (- (+ (* 365 (- ?x844 1)) (div (- ?x844 1) 4)) (div (- ?x844 1) 100))))
 (let ((?x1008 (- (+ (+ (+ ?x632 (div (- ?x844 1) 400)) ?x1012) (- ?x1026 1)) 730179)))
 (let ((?x487 (+ (+ ?x1008 0) 730179)))
 (let ((?x1085 (mod ?x487 146097)))
 (let ((?x670 (div ?x1085 36524)))
 (let ((?x691 (ite (<= 4 ?x670) 3 ?x670)))
 (let ((?x576 (- ?x1085 (* ?x691 36524))))
 (let ((?x486 (mod ?x576 1461)))
 (let ((?x573 (div ?x486 365)))
 (let ((?x988 (ite (<= 4 ?x573) 3 ?x573)))
 (let ((?x489 (+ (+ (* (div ?x487 146097) 400) (* ?x691 100)) (* (div ?x576 1461) 4))))
 (let ((?x1053 (+ (+ ?x489 ?x988) 1)))
 (let (($x992 (or (and (= (mod ?x1053 4) 0) (and (distinct (mod ?x1053 100) 0) true)) (= (mod ?x1053 400) 0))))
 (let ((?x601 (- ?x486 (* ?x988 365))))
 (let ((?x783 (ite $x992 31 31)))
 (let (($x1065 (>= ?x601 ?x783)))
 (let ((?x1066 (ite $x1065 (+ (- ?x601 ?x783) 1) (+ (- ?x601 (ite $x992 0 0)) 1))))
 (let ((?x561 (ite $x992 60 59)))
 (let (($x757 (>= ?x601 ?x561)))
 (let ((?x564 (ite $x992 91 90)))
 (let (($x547 (>= ?x601 ?x564)))
 (let ((?x1101 (ite $x547 (+ (- ?x601 ?x564) 1) (ite $x757 (+ (- ?x601 ?x561) 1) ?x1066))))
 (let ((?x475 (ite $x992 121 120)))
 (let (($x519 (>= ?x601 ?x475)))
 (let ((?x572 (ite $x992 152 151)))
 (let (($x1084 (>= ?x601 ?x572)))
 (let ((?x545 (ite $x1084 (+ (- ?x601 ?x572) 1) (ite $x519 (+ (- ?x601 ?x475) 1) ?x1101))))
 (let ((?x578 (ite $x992 182 181)))
 (let (($x1050 (>= ?x601 ?x578)))
 (let ((?x1099 (ite $x992 213 212)))
 (let (($x566 (>= ?x601 ?x1099)))
 (let ((?x473 (ite $x566 (+ (- ?x601 ?x1099) 1) (ite $x1050 (+ (- ?x601 ?x578) 1) ?x545))))
 (let ((?x775 (ite $x992 244 243)))
 (let (($x1042 (>= ?x601 ?x775)))
 (let ((?x583 (ite $x992 274 273)))
 (let (($x533 (>= ?x601 ?x583)))
 (let ((?x520 (ite $x533 (+ (- ?x601 ?x583) 1) (ite $x1042 (+ (- ?x601 ?x775) 1) ?x473))))
 (let ((?x555 (ite $x992 305 304)))
 (let (($x586 (>= ?x601 ?x555)))
 (let ((?x459 (ite $x992 335 334)))
 (let (($x1088 (>= ?x601 ?x459)))
 (let ((?x406 (ite $x1088 (+ (- ?x601 ?x459) 1) (ite $x586 (+ (- ?x601 ?x555) 1) ?x520))))
 (let (($x443 (= 0 0)))
 (let ((?x416 (ite $x519 5 (ite $x547 4 (ite $x757 3 (ite $x1065 2 1))))))
 (let ((?x1078 (ite $x1042 9 (ite $x566 8 (ite $x1050 7 (ite $x1084 6 ?x416))))))
 (let (($x562 (= y_month (ite $x443 ?x818 (ite $x1088 12 (ite $x586 11 (ite $x533 10 ?x1078)))))))
 (and (= y_year (ite $x443 ?x844 ?x1053)) $x562 (= y_day (ite $x443 ?x1026 ?x406)))))))))))))))))))))))))))))))))))))))))))))))))))))))))))))))))
(assert
 (let ((?x952 (+ (mod (- (+ x_month (+ (* 0 12) 0)) 1) 12) 1)))
(let ((?x920 (ite (or (= ?x952 4) (= ?x952 6) (= ?x952 9) (= ?x952 11)) 30 31)))
(let ((?x902 (+ 0 (div (- (+ x_month (+ (* 0 12) 0)) 1) 12))))
(let ((?x903 (+ x_year ?x902)))
(let (($x950 (or (and (= (mod ?x903 4) 0) (and (distinct (mod ?x903 100) 0) true)) (= (mod ?x903 400) 0))))
(let ((?x947 (ite (= ?x952 2) (ite $x950 29 28) ?x920)))
(let (($x766 (< x_day 1)))
(let ((?x482 (ite $x766 1 (ite (> x_day ?x947) ?x947 x_day))))
(let ((?x895 (ite (< ?x482 1) 1 (ite (> ?x482 ?x947) ?x947 ?x482))))
(let ((?x916 (ite (= 2 ?x952) (ite $x950 31 31) (ite (= 1 ?x952) (ite $x950 0 0) 0))))
(let ((?x730 (ite (= 4 ?x952) (ite $x950 91 90) (ite (= 3 ?x952) (ite $x950 60 59) ?x916))))
(let ((?x923 (ite (= 6 ?x952) (ite $x950 152 151) (ite (= 5 ?x952) (ite $x950 121 120) ?x730))))
(let ((?x637 (ite (= 8 ?x952) (ite $x950 213 212) (ite (= 7 ?x952) (ite $x950 182 181) ?x923))))
(let ((?x660 (ite (= 10 ?x952) (ite $x950 274 273) (ite (= 9 ?x952) (ite $x950 244 243) ?x637))))
(let ((?x893 (ite (= 12 ?x952) (ite $x950 335 334) (ite (= 11 ?x952) (ite $x950 305 304) ?x660))))
(let ((?x711 (- (+ (* 365 (- ?x903 1)) (div (- ?x903 1) 4)) (div (- ?x903 1) 100))))
(let ((?x425 (- (+ (+ (+ ?x711 (div (- ?x903 1) 400)) ?x893) (- ?x895 1)) 730179)))
(let ((?x451 (+ (+ ?x425 365) 730179)))
(let ((?x721 (mod ?x451 146097)))
(let ((?x422 (div ?x721 36524)))
(let ((?x699 (ite (<= 4 ?x422) 3 ?x422)))
(let ((?x964 (- ?x721 (* ?x699 36524))))
(let ((?x604 (mod ?x964 1461)))
(let ((?x735 (div ?x604 365)))
(let ((?x3530 (ite (<= 4 ?x735) 3 ?x735)))
(let ((?x1128 (+ (+ (* (div ?x451 146097) 400) (* ?x699 100)) (* (div ?x964 1461) 4))))
(let ((?x746 (+ (+ ?x1128 ?x3530) 1)))
(let (($x570 (or (and (= (mod ?x746 4) 0) (and (distinct (mod ?x746 100) 0) true)) (= (mod ?x746 400) 0))))
(let ((?x1102 (- ?x604 (* ?x3530 365))))
(let ((?x1106 (ite $x570 31 31)))
(let (($x758 (>= ?x1102 ?x1106)))
(let ((?x3040 (ite $x758 (+ (- ?x1102 ?x1106) 1) (+ (- ?x1102 (ite $x570 0 0)) 1))))
(let ((?x1104 (ite $x570 60 59)))
(let (($x756 (>= ?x1102 ?x1104)))
(let ((?x1112 (ite $x570 91 90)))
(let (($x1158 (>= ?x1102 ?x1112)))
(let ((?x3086 (ite $x1158 (+ (- ?x1102 ?x1112) 1) (ite $x756 (+ (- ?x1102 ?x1104) 1) ?x3040))))
(let ((?x1105 (ite $x570 121 120)))
(let (($x1108 (>= ?x1102 ?x1105)))
(let ((?x1114 (ite $x570 152 151)))
(let (($x1175 (>= ?x1102 ?x1114)))
(let ((?x3024 (ite $x1175 (+ (- ?x1102 ?x1114) 1) (ite $x1108 (+ (- ?x1102 ?x1105) 1) ?x3086))))
(let ((?x1107 (ite $x570 182 181)))
(let (($x1176 (>= ?x1102 ?x1107)))
(let ((?x1170 (ite $x570 213 212)))
(let (($x1180 (>= ?x1102 ?x1170)))
(let ((?x2983 (ite $x1180 (+ (- ?x1102 ?x1170) 1) (ite $x1176 (+ (- ?x1102 ?x1107) 1) ?x3024))))
(let ((?x1113 (ite $x570 244 243)))
(let (($x1182 (>= ?x1102 ?x1113)))
(let ((?x749 (ite $x570 274 273)))
(let (($x1134 (>= ?x1102 ?x749)))
(let ((?x3453 (ite $x1134 (+ (- ?x1102 ?x749) 1) (ite $x1182 (+ (- ?x1102 ?x1113) 1) ?x2983))))
(let ((?x1165 (ite $x570 305 304)))
(let (($x668 (>= ?x1102 ?x1165)))
(let ((?x1139 (ite $x570 335 334)))
(let (($x1044 (>= ?x1102 ?x1139)))
(let ((?x3493 (ite $x1044 (+ (- ?x1102 ?x1139) 1) (ite $x668 (+ (- ?x1102 ?x1165) 1) ?x3453))))
(let (($x694 (= 0 365)))
(let ((?x1174 (ite $x1108 5 (ite $x1158 4 (ite $x756 3 (ite $x758 2 1))))))
(let ((?x1183 (ite $x1182 9 (ite $x1180 8 (ite $x1176 7 (ite $x1175 6 ?x1174))))))
(let ((?x1058 (ite $x1044 12 (ite $x668 11 (ite $x1134 10 ?x1183)))))
(let (($x2646 (and (= y_year (ite $x694 ?x903 ?x746)) (= y_month (ite $x694 ?x952 ?x1058)) (= y_day (ite $x694 ?x895 ?x3493)))))
(not $x2646))))))))))))))))))))))))))))))))))))))))))))))))))))))))))))))))
(check-sat)
